955351
955351
943174
943174
943174
943174
935913
935913
935913
935913
935913
935913
935913
920384
920384
920384
920384
920384
920384
920384
919910
903583
903583
903583
903583
901463
891334
891334
891334
891334
884019
859730
859730
859730
859730
859730
859730
859730
859730
859730
859730
859730
859730
859730
859730
857039
855139
855139
854946
848518
827182
827182
827182
820647
818737
818737
818737
818737
818737
808206
808206
808206
808206
808206
800418
800418
800418
800418
800418
800418
800418
800418
800418
794180
794180
784368
784368
784368
759256
759256
759256
759256
759256
759256
759256
759256
759256
759256
759256
759256
759256
759256
742627
742627
742627
742627
742627
742627
741927
741927
